c instance by G2
c solution = 010001111000000
c Known solution cost is 778 
p cnf 15 30
w 95 16 37 55 36 95 81 75 16 34 54 60 10 96 18
-9 11 -5 0
-6 9 -13 0
9 3 -7 0
-5 2 14 0
-4 6 13 0
-10 -6 15 0
1 11 -15 0
14 2 4 0
7 15 10 0
6 -5 -14 0
4 14 -12 0
-11 6 -8 0
-8 10 -4 0
3 -7 -15 0
-12 2 -15 0
5 -14 -1 0
4 -7 -13 0
-9 7 11 0
-11 -9 1 0
-12 -4 9 0
-14 3 15 0
-1 -8 -2 0
-3 15 7 0
10 15 2 0
7 12 -3 0
4 -1 -13 0
5 1 8 0
6 -9 1 0
-3 -9 11 0
-12 -10 -5 0
